NAME : tsp35_30.191.tour
COMMENT : Length = 191
COMMENT : Found by LKH [Keld Helsgaun]
TYPE : TOUR
DIMENSION : 35
TOUR_SECTION
1
9
12
17
28
6
20
27
22
11
19
8
5
7
2
16
26
32
31
4
13
30
35
15
21
24
3
29
25
18
33
14
34
10
23
-1
EOF
